c File: data_files/evolved_graphs/g8055.col
c
c Auto generated graph
c
p edge 100 513
e 1 6
e 1 15
e 1 30
e 1 37
e 1 47
e 1 52
e 1 62
e 1 69
e 1 77
e 1 96
e 1 97
e 2 17
e 2 25
e 2 29
e 2 34
e 2 43
e 2 47
e 2 50
e 2 53
e 2 66
e 2 81
e 2 96
e 2 100
e 3 31
e 3 36
e 3 38
e 3 49
e 3 51
e 3 56
e 3 57
e 3 60
e 3 71
e 3 77
e 3 80
e 3 98
e 4 10
e 4 22
e 4 34
e 4 36
e 4 43
e 4 50
e 4 72
e 4 91
e 4 97
e 5 10
e 5 11
e 5 16
e 5 25
e 5 36
e 5 42
e 5 46
e 5 47
e 5 48
e 5 64
e 5 92
e 5 94
e 6 19
e 6 32
e 6 40
e 6 50
e 6 54
e 6 60
e 6 66
e 6 69
e 6 92
e 6 98
e 6 100
e 7 9
e 7 21
e 7 42
e 7 50
e 7 52
e 7 53
e 7 54
e 7 57
e 7 82
e 7 85
e 7 89
e 7 99
e 8 33
e 8 53
e 8 56
e 8 61
e 8 64
e 8 71
e 8 76
e 8 79
e 8 89
e 8 100
e 9 29
e 9 38
e 9 48
e 9 63
e 9 68
e 9 71
e 9 75
e 9 78
e 9 93
e 10 15
e 10 33
e 10 40
e 10 51
e 10 52
e 10 64
e 10 74
e 10 87
e 10 90
e 10 93
e 11 14
e 11 27
e 11 34
e 11 35
e 11 46
e 11 54
e 11 67
e 11 79
e 11 80
e 11 96
e 12 13
e 12 33
e 12 37
e 12 43
e 12 48
e 12 55
e 12 60
e 12 68
e 12 91
e 12 98
e 13 40
e 13 43
e 13 44
e 13 53
e 13 55
e 13 68
e 13 71
e 13 81
e 14 15
e 14 19
e 14 39
e 14 41
e 14 42
e 14 59
e 14 66
e 14 71
e 14 83
e 14 91
e 14 99
e 15 23
e 15 40
e 15 60
e 15 66
e 15 71
e 15 73
e 15 89
e 15 99
e 16 25
e 16 33
e 16 35
e 16 37
e 16 56
e 16 60
e 16 68
e 16 69
e 16 71
e 16 76
e 16 88
e 16 99
e 17 39
e 17 49
e 17 55
e 17 61
e 17 62
e 17 67
e 17 73
e 17 88
e 17 90
e 17 92
e 17 100
e 18 29
e 18 48
e 18 54
e 18 58
e 18 59
e 18 62
e 18 63
e 18 76
e 18 81
e 19 26
e 19 32
e 19 38
e 19 43
e 19 51
e 19 59
e 19 69
e 19 89
e 20 27
e 20 28
e 20 38
e 20 44
e 20 48
e 20 52
e 20 66
e 20 82
e 20 87
e 20 91
e 20 92
e 20 94
e 21 25
e 21 30
e 21 39
e 21 45
e 21 50
e 21 59
e 21 60
e 21 74
e 21 79
e 21 87
e 22 29
e 22 30
e 22 42
e 22 43
e 22 44
e 22 46
e 22 58
e 22 60
e 22 61
e 22 72
e 22 73
e 23 32
e 23 40
e 23 41
e 23 43
e 23 54
e 23 56
e 23 73
e 23 80
e 24 31
e 24 42
e 24 45
e 24 51
e 24 52
e 24 55
e 24 65
e 24 67
e 24 69
e 25 29
e 25 40
e 25 52
e 25 56
e 25 59
e 25 100
e 26 27
e 26 29
e 26 36
e 26 45
e 26 46
e 26 47
e 26 51
e 26 52
e 26 53
e 26 61
e 26 62
e 26 80
e 27 33
e 27 37
e 27 45
e 27 46
e 27 49
e 27 74
e 27 80
e 27 86
e 28 32
e 28 34
e 28 41
e 28 44
e 28 51
e 28 56
e 28 63
e 28 74
e 29 32
e 29 59
e 29 61
e 29 72
e 29 75
e 29 100
e 30 33
e 30 35
e 30 42
e 30 47
e 30 71
e 30 82
e 30 97
e 30 100
e 31 33
e 31 46
e 31 50
e 31 57
e 31 69
e 31 89
e 32 34
e 32 55
e 32 57
e 32 64
e 32 78
e 32 94
e 33 37
e 33 55
e 33 59
e 33 85
e 34 45
e 34 77
e 34 84
e 35 40
e 35 44
e 35 51
e 35 54
e 35 61
e 35 66
e 35 75
e 35 93
e 35 95
e 36 42
e 36 49
e 36 55
e 36 63
e 36 66
e 36 72
e 36 79
e 37 38
e 37 39
e 37 51
e 37 57
e 37 64
e 37 91
e 38 40
e 38 42
e 38 59
e 38 88
e 39 44
e 39 50
e 39 62
e 39 64
e 39 75
e 39 83
e 39 91
e 39 94
e 40 44
e 40 86
e 40 98
e 41 50
e 41 61
e 41 63
e 41 84
e 41 85
e 42 54
e 42 55
e 42 64
e 42 74
e 42 81
e 43 56
e 43 76
e 43 86
e 43 93
e 44 61
e 44 64
e 44 78
e 45 76
e 45 77
e 45 86
e 45 92
e 45 99
e 46 57
e 46 63
e 46 87
e 46 92
e 46 99
e 47 48
e 47 53
e 47 84
e 47 95
e 48 49
e 48 50
e 48 62
e 48 68
e 48 82
e 49 64
e 49 67
e 49 69
e 49 77
e 49 80
e 49 100
e 50 53
e 51 52
e 51 58
e 51 70
e 51 73
e 52 54
e 52 71
e 52 87
e 52 94
e 52 100
e 53 61
e 53 70
e 53 71
e 53 74
e 53 81
e 54 60
e 54 88
e 55 78
e 55 92
e 56 62
e 56 68
e 56 80
e 56 97
e 57 64
e 57 71
e 57 74
e 57 98
e 58 65
e 59 69
e 59 72
e 59 85
e 60 61
e 60 65
e 60 88
e 61 62
e 62 86
e 62 89
e 63 86
e 63 90
e 64 67
e 64 81
e 64 86
e 64 96
e 65 67
e 65 94
e 66 70
e 66 87
e 66 94
e 67 72
e 67 95
e 67 100
e 68 70
e 68 72
e 68 73
e 68 94
e 69 73
e 69 90
e 69 91
e 69 93
e 70 73
e 70 85
e 70 86
e 71 92
e 72 88
e 72 95
e 72 96
e 73 76
e 73 79
e 73 90
e 74 90
e 74 93
e 74 98
e 75 80
e 75 89
e 75 92
e 75 93
e 76 90
e 76 94
e 76 95
e 76 99
e 77 83
e 77 85
e 77 94
e 78 83
e 78 95
e 79 84
e 79 93
e 79 96
e 80 90
e 80 96
e 81 84
e 81 87
e 82 85
e 82 88
e 82 94
e 82 96
e 82 99
e 83 88
e 83 93
e 83 99
e 84 87
e 84 93
e 84 95
e 84 98
e 85 92
e 85 97
e 86 88
e 86 96
e 86 98
e 87 90
e 87 92
e 87 95
e 87 96
e 90 91
e 90 96
e 91 97
e 91 98
e 92 93
e 95 98
e 98 99
e 98 100
e 99 100
